\Problem name: samp1.lp

Minimize
 x1 + x2 + x3 + x4 + x5 + x6
Subject To
 x1 + x2 >= 1
 x1 + x2 + x6 >= 1
 x3 + x4 >= 1
 x3 + x4 + x5 >= 1
 x4 + x5 + x6 >= 1
 x2 + x5 + x6 >= 1
 x1 >= 0
 x2 >= 0
 x3 >= 0 
 x4 >= 0
 x5 >= 0
 x6 >= 0
 x1 <= 1
 x2 <= 1
 x3 <= 1
 x4 <= 1
 x5 <= 1
 x6 <= 1
Bounds
 0 <= X1 <= 4
 2 <= X2 <= 5
 0 <= X3 <= 1
 3 <= X4 <= 8
Binaries
 X3 
Generals
 X2 
End